data;


param d:= 100;
param r:=5;
param p:=0.840000;
param M:=1000;
param U:=
         1         1       -2.799311e-02
         2         1        3.976945e-01
         3         1        2.144148e+00
         4         1        6.497357e-01
         5         1        1.149946e+00
         6         1        1.939251e+00
         7         1        5.947426e-01
         8         1       -5.659773e-01
         9         1       -1.530460e+00
        10         1       -4.886464e-02
        11         1       -7.014786e-01
        12         1        4.542729e-01
        13         1        4.586427e-01
        14         1        5.736717e-01
        15         1        1.365743e+00
        16         1        7.349947e-01
        17         1       -4.806921e-01
        18         1        1.321902e+00
        19         1        4.344066e-01
        20         1        1.237666e-01
        21         1        1.729508e-01
        22         1        1.740881e+00
        23         1        2.727486e-01
        24         1        1.440524e+00
        25         1        2.073004e-01
        26         1       -2.167646e+00
        27         1        7.645023e-01
        28         1       -7.398691e-01
        29         1        1.999039e-01
        30         1       -1.260261e+00
        31         1        1.460552e+00
        32         1       -4.071430e-01
        33         1       -6.904337e-01
        34         1        4.628782e-01
        35         1        1.874264e-01
        36         1       -1.028077e+00
        37         1        1.097214e+00
        38         1        1.306254e+00
        39         1       -9.015496e-01
        40         1       -1.173292e+00
        41         1       -6.038197e-01
        42         1       -1.084057e+00
        43         1        8.584975e-01
        44         1        1.616867e+00
        45         1       -6.995701e-01
        46         1       -7.370589e-01
        47         1        5.589376e-01
        48         1       -1.633793e+00
        49         1       -4.362685e-01
        50         1        2.738352e-01
        51         1        8.141745e-01
        52         1        3.697943e-01
        53         1        2.870807e-01
        54         1       -8.039874e-01
        55         1        1.177010e+00
        56         1       -1.117764e+00
        57         1        2.573714e-01
        58         1       -9.701605e-01
        59         1       -2.325364e-01
        60         1       -2.311559e-03
        61         1        3.033073e-02
        62         1        1.460433e-01
        63         1       -2.633899e-01
        64         1        8.740230e-01
        65         1       -7.674260e-01
        66         1        5.721016e-01
        67         1        4.683512e-01
        68         1        3.873024e-01
        69         1       -1.160827e+00
        70         1       -1.364266e+00
        71         1       -5.505629e-01
        72         1       -7.200790e-01
        73         1       -1.238508e+00
        74         1       -1.860530e-01
        75         1        6.396217e-02
        76         1       -1.539423e-01
        77         1       -2.009439e+00
        78         1        5.039544e-01
        79         1        1.049310e+00
        80         1        1.214628e-01
        81         1       -9.095292e-01
        82         1        4.722049e-01
        83         1        5.339133e-01
        84         1        7.919864e-01
        85         1        5.453832e-01
        86         1       -8.954008e-02
        87         1       -1.614536e+00
        88         1        8.573022e-01
        89         1       -1.515764e+00
        90         1        1.226146e+00
        91         1       -8.421902e-01
        92         1        1.760718e-01
        93         1        7.101537e-01
        94         1        1.825459e+00
        95         1        1.128927e+00
        96         1       -2.868551e-01
        97         1        8.668926e-01
        98         1        7.203439e-01
        99         1       -2.662583e-02
       100         1        9.267447e-01
         1         2       -1.621241e-01
         2         2       -1.252840e+00
         3         2        3.265668e-01
         4         2        9.567814e-01
         5         2       -1.171964e+00
         6         2        2.086250e-01
         7         2        1.202865e+00
         8         2       -9.302062e-01
         9         2       -5.028452e-01
        10         2        4.650058e-01
        11         2       -4.784515e-01
        12         2        3.722914e-01
        13         2       -1.313003e+00
        14         2       -8.661464e-01
        15         2       -5.552181e-01
        16         2        4.452760e-01
        17         2        8.474195e-01
        18         2        1.114640e+00
        19         2       -8.236126e-01
        20         2        1.474478e+00
        21         2       -1.063266e+00
        22         2        1.039204e+00
        23         2       -7.330992e-01
        24         2       -2.258930e-01
        25         2        1.097492e+00
        26         2       -1.729353e+00
        27         2       -3.604016e-01
        28         2        4.471599e-01
        29         2       -3.057324e-01
        30         2        1.299766e+00
        31         2       -4.734268e-01
        32         2       -3.175389e-01
        33         2       -1.105406e+00
        34         2        1.191672e+00
        35         2        8.020114e-01
        36         2        8.572786e-01
        37         2        7.162451e-01
        38         2        1.983870e+00
        39         2       -7.047261e-01
        40         2       -5.807886e-01
        41         2        1.806421e+00
        42         2       -5.575110e-01
        43         2       -9.334822e-01
        44         2       -2.480216e+00
        45         2       -6.229889e-01
        46         2        4.559798e-01
        47         2        5.568499e-01
        48         2       -5.508630e-01
        49         2       -1.177980e+00
        50         2       -6.154832e-01
        51         2       -6.903132e-01
        52         2        4.313257e-01
        53         2       -7.378996e-01
        54         2        1.661626e+00
        55         2       -1.498666e+00
        56         2        1.273507e+00
        57         2       -1.536501e+00
        58         2       -1.905408e+00
        59         2       -1.126107e+00
        60         2       -7.095711e-01
        61         2       -2.265453e-01
        62         2        9.149120e-02
        63         2        9.732207e-01
        64         2       -1.104887e-01
        65         2        8.473381e-01
        66         2       -7.256887e-02
        67         2        2.946678e-01
        68         2        2.914201e-01
        69         2       -1.038464e+00
        70         2        1.732206e+00
        71         2        6.188797e-01
        72         2       -7.130866e-01
        73         2        1.533532e-01
        74         2        6.988303e-01
        75         2        1.222702e+00
        76         2       -2.986911e-01
        77         2       -2.303393e+00
        78         2        5.950651e-01
        79         2        1.226088e+00
        80         2        8.061314e-01
        81         2       -1.612405e+00
        82         2       -1.386761e-01
        83         2        1.082549e+00
        84         2       -7.609438e-01
        85         2        6.465966e-01
        86         2       -9.253687e-01
        87         2       -4.671583e-01
        88         2        7.025872e-01
        89         2        8.177845e-01
        90         2        1.730792e+00
        91         2        7.041146e-01
        92         2        1.253996e+00
        93         2        9.878434e-01
        94         2        6.469713e-01
        95         2        2.404970e-01
        96         2        1.082299e-01
        97         2        6.927685e-01
        98         2       -1.356203e+00
        99         2        2.691379e-01
       100         2       -2.194408e-02
         1         3       -5.635113e-01
         2         3        1.127253e+00
         3         3        2.326251e+00
         4         3        7.248708e-01
         5         3        1.226306e+00
         6         3       -5.539773e-01
         7         3        6.782007e-01
         8         3       -9.677386e-01
         9         3       -1.049343e+00
        10         3        1.112342e+00
        11         3        5.519091e-01
        12         3        1.727030e-01
        13         3        1.114530e+00
        14         3        1.445943e+00
        15         3       -2.295186e+00
        16         3       -1.578156e-01
        17         3        6.794393e-02
        18         3        1.567719e+00
        19         3       -9.985952e-01
        20         3       -1.368465e+00
        21         3        1.413334e+00
        22         3       -1.776622e+00
        23         3        8.177739e-01
        24         3       -9.501453e-01
        25         3       -4.116752e-01
        26         3       -6.237871e-01
        27         3        9.492006e-01
        28         3        8.870238e-01
        29         3        9.688282e-01
        30         3       -1.061630e+00
        31         3       -2.914798e-01
        32         3       -1.169008e+00
        33         3       -7.730566e-01
        34         3       -1.179646e+00
        35         3        1.000725e+00
        36         3        9.678423e-01
        37         3       -5.366041e-01
        38         3       -1.407013e+00
        39         3       -3.587087e-01
        40         3        4.693448e-01
        41         3        4.630788e-01
        42         3       -1.247547e+00
        43         3        9.133398e-01
        44         3        4.560356e-01
        45         3       -1.275879e+00
        46         3       -2.084687e+00
        47         3        1.460446e+00
        48         3       -4.897416e-01
        49         3        3.873016e-01
        50         3       -2.933608e-02
        51         3       -3.370270e-01
        52         3       -3.561104e-01
        53         3       -1.108161e+00
        54         3       -1.194807e+00
        55         3       -1.102475e+00
        56         3        5.182022e-01
        57         3        4.485823e-01
        58         3        4.579317e-02
        59         3       -2.172572e-01
        60         3       -1.364806e+00
        61         3        2.792101e-01
        62         3        1.021749e+00
        63         3        1.902246e-01
        64         3       -1.665078e+00
        65         3        1.330670e+00
        66         3        5.335637e-01
        67         3       -3.950731e-01
        68         3       -1.490325e-01
        69         3        7.076650e-01
        70         3        2.647960e-01
        71         3       -8.868327e-01
        72         3        6.480859e-01
        73         3       -2.148698e+00
        74         3       -3.325742e-01
        75         3        6.318725e-01
        76         3       -1.403674e+00
        77         3       -1.070176e+00
        78         3       -4.087306e-01
        79         3       -4.378024e-01
        80         3        8.838246e-02
        81         3        4.501592e-01
        82         3        3.002800e-01
        83         3       -4.257905e-01
        84         3        1.277743e+00
        85         3       -5.932701e-01
        86         3       -2.187581e-01
        87         3       -5.590954e-01
        88         3       -1.349291e+00
        89         3        6.810697e-01
        90         3        1.993024e+00
        91         3        1.502093e-01
        92         3       -1.093286e+00
        93         3        8.023896e-01
        94         3       -1.270588e+00
        95         3        1.258760e+00
        96         3        1.165236e+00
        97         3        1.200244e+00
        98         3       -1.705496e-01
        99         3        1.745803e+00
       100         3       -5.969401e-01
         1         4        1.156210e+00
         2         4        1.831748e-01
         3         4        2.148255e+00
         4         4       -2.001040e-01
         5         4        6.487204e-02
         6         4       -1.209847e+00
         7         4       -1.224670e+00
         8         4        3.937386e-01
         9         4        6.988136e-01
        10         4        9.900727e-01
        11         4        1.408659e+00
        12         4       -5.143954e-01
        13         4       -1.092436e+00
        14         4       -1.471995e+00
        15         4        1.010147e+00
        16         4       -7.806496e-01
        17         4        1.362913e+00
        18         4        2.010250e+00
        19         4       -5.131473e-01
        20         4        1.527089e+00
        21         4       -1.445196e+00
        22         4        2.251402e-01
        23         4       -1.170975e-01
        24         4       -1.561597e+00
        25         4       -7.996615e-02
        26         4       -3.085540e-02
        27         4        3.229992e-01
        28         4       -1.519436e-01
        29         4       -1.179293e+00
        30         4        1.330689e+00
        31         4       -3.360863e-01
        32         4       -4.950438e-01
        33         4       -1.466749e+00
        34         4        4.093830e-01
        35         4       -3.656172e-01
        36         4        1.357469e+00
        37         4        2.018642e-01
        38         4        8.933897e-01
        39         4        1.362467e+00
        40         4       -7.656771e-01
        41         4        2.504774e-01
        42         4       -1.745541e+00
        43         4       -1.697474e+00
        44         4        2.615756e+00
        45         4       -1.608977e+00
        46         4       -6.190415e-01
        47         4        1.004626e+00
        48         4       -5.159588e-01
        49         4        1.624186e+00
        50         4        1.039137e+00
        51         4       -2.057446e+00
        52         4        2.365613e+00
        53         4        1.168231e+00
        54         4        1.792878e-01
        55         4       -4.619355e-02
        56         4        5.520686e-01
        57         4        6.104316e-01
        58         4       -4.034336e-01
        59         4       -1.790621e+00
        60         4        1.909138e+00
        61         4        1.194783e-01
        62         4       -1.189739e+00
        63         4       -8.931311e-01
        64         4        4.134499e-01
        65         4       -2.270343e-02
        66         4       -1.525746e+00
        67         4       -1.437520e+00
        68         4       -2.154696e+00
        69         4        1.051408e+00
        70         4       -6.650779e-01
        71         4        1.062470e+00
        72         4        1.149477e+00
        73         4       -1.119679e+00
        74         4       -2.308899e-01
        75         4        1.656081e+00
        76         4        4.761022e-01
        77         4        1.712135e+00
        78         4       -1.058981e-01
        79         4       -5.326293e-01
        80         4        4.842002e-01
        81         4        7.869727e-01
        82         4        6.318735e-01
        83         4        5.445669e-01
        84         4       -1.875735e+00
        85         4       -1.432776e+00
        86         4       -1.184111e+00
        87         4        1.150833e-01
        88         4       -6.301324e-01
        89         4       -2.834884e-01
        90         4       -1.244809e+00
        91         4        1.664700e+00
        92         4       -1.466704e+00
        93         4        1.098580e+00
        94         4       -1.030604e+00
        95         4        1.229952e+00
        96         4        3.349874e-01
        97         4       -1.055393e+00
        98         4        9.329925e-01
        99         4        2.037317e-01
       100         4       -7.779087e-01
         1         5        1.156048e+00
         2         5       -2.298175e-01
         3         5        8.685939e-01
         4         5        2.912793e-01
         5         5        1.034869e-01
         6         5       -3.287498e-01
         7         5       -1.656988e-01
         8         5        1.540248e+00
         9         5        3.220303e-01
        10         5        4.318481e-01
        11         5        3.132654e-01
        12         5        1.691883e+00
        13         5        1.188525e-02
        14         5       -3.807193e-01
        15         5        1.888941e+00
        16         5       -5.534336e-01
        17         5        2.491099e+00
        18         5       -2.946915e-01
        19         5        1.094439e+00
        20         5        4.338553e-01
        21         5        5.862905e-02
        22         5       -4.257337e-01
        23         5        2.778410e-01
        24         5       -4.105995e-01
        25         5        2.891682e-01
        26         5       -7.853611e-01
        27         5        1.283620e+00
        28         5       -9.641745e-01
        29         5        6.764045e-01
        30         5        3.520214e-01
        31         5        8.358462e-01
        32         5        5.230016e-01
        33         5       -5.647640e-01
        34         5        2.823959e-01
        35         5        9.431309e-01
        36         5       -9.211919e-01
        37         5        7.830956e-01
        38         5        1.235437e-01
        39         5        1.013499e+00
        40         5        2.542905e-01
        41         5        3.704541e-02
        42         5       -1.680827e-01
        43         5       -9.550762e-01
        44         5        9.022025e-02
        45         5        1.616870e-02
        46         5       -2.460312e-02
        47         5        3.014454e-01
        48         5        3.656352e-01
        49         5       -6.043488e-01
        50         5       -4.223241e-02
        51         5        5.411666e-01
        52         5       -1.220419e+00
        53         5       -6.616479e-01
        54         5        3.035571e-01
        55         5        9.028826e-01
        56         5       -1.014414e+00
        57         5        5.824038e-01
        58         5       -7.481907e-01
        59         5        4.538205e-01
        60         5       -3.513434e-02
        61         5       -3.973373e-01
        62         5       -1.320338e+00
        63         5       -1.552102e+00
        64         5        5.527827e-02
        65         5       -2.479151e+00
        66         5       -7.727330e-01
        67         5       -8.236613e-01
        68         5       -1.817705e+00
        69         5       -1.054877e+00
        70         5        5.911165e-01
        71         5        9.830848e-01
        72         5       -6.329127e-02
        73         5       -9.738150e-01
        74         5        1.296640e+00
        75         5        4.000392e-01
        76         5       -6.974176e-01
        77         5       -8.914075e-01
        78         5       -2.426235e-01
        79         5       -2.034719e+00
        80         5       -6.282332e-01
        81         5        5.272989e-02
        82         5       -2.071239e+00
        83         5       -4.779484e-01
        84         5       -2.078836e-01
        85         5        8.364270e-01
        86         5        2.354254e+00
        87         5       -4.980404e-01
        88         5        8.135337e-01
        89         5        4.615209e-02
        90         5       -1.683944e-01
        91         5       -8.770197e-01
        92         5       -1.062408e-01
        93         5        4.858453e-01
        94         5        4.751798e-01
        95         5       -6.603451e-02
        96         5        4.786751e-01
        97         5        7.478964e-01
        98         5        1.843097e-01
        99         5       -5.336600e-01
       100         5       -6.814696e-02
;

param theta:=
    1       -1.400218e-01
    2       -5.690606e-01
    3       -5.650263e-01
    4        5.958629e-01
    5       -5.499465e-01
;
param X_true:=
    1        4.677551e-01
    2        2.558629e-01
    3       -9.980714e-01
    4       -1.324437e+00
    5       -2.052517e-01
    6       -6.173540e-01
    7       -1.789591e+00
    8        5.429509e-01
    9        1.332651e+00
   10       -5.338228e-01
   11        7.257355e-01
   12       -1.610001e+00
   13       -6.042585e-01
   14       -1.072165e+00
   15        9.846525e-01
   16       -4.279355e-01
   17       -1.011178e+00
   18       -3.452970e-01
   19        6.444353e-02
   20        5.881596e-01
   21       -1.111106e+00
   22        5.369905e-01
   23       -3.056484e-01
   24       -2.409909e-01
   25       -6.276345e-01
   26        2.053602e+00
   27       -9.517387e-01
   28       -2.123483e-01
   29       -1.476107e+00
   30        6.359822e-01
   31       -4.303388e-01
   32        3.156268e-01
   33        5.991246e-01
   34        1.221771e-02
   35       -1.784602e+00
   36        4.247249e-01
   37       -5.684024e-01
   38       -5.245155e-02
   39        9.844217e-01
   40       -3.664866e-01
   41       -1.076190e+00
   42        2.262794e-01
   43       -5.912827e-01
   44        2.436340e+00
   45        2.057570e-01
   46        6.662940e-01
   47       -7.874942e-01
   48        3.104373e-01
   49        1.812745e+00
   50        9.708889e-01
   51       -1.054312e+00
   52        1.984728e+00
   53        2.065829e+00
   54       -2.180015e-01
   55        7.868899e-01
   56        2.584145e-02
   57        6.283064e-01
   58        1.365336e+00
   59       -5.204025e-01
   60        2.332171e+00
   61        2.566169e-01
   62       -6.326347e-01
   63       -3.030337e-01
   64        1.097265e+00
   65        2.232785e-01
   66       -8.244618e-01
   67       -4.136314e-01
   68       -4.201222e-01
   69        1.560262e+00
   70       -1.665698e+00
   71        3.184372e-01
   72        8.601683e-01
   73        1.168593e+00
   74       -1.034373e+00
   75       -2.949753e-01
   76        1.651875e+00
   77        3.707237e+00
   78       -1.079199e-01
   79        2.043373e-01
   80        1.083282e-01
   81        1.230487e+00
   82        1.358711e+00
   83        1.371208e-01
   84       -1.403187e+00
   85       -1.422833e+00
   86       -1.337549e+00
   87        1.150285e+00
   88       -5.803433e-01
   89       -8.322527e-01
   90       -2.931851e+00
   91        1.106616e+00
   92       -9.360457e-01
   93       -7.275370e-01
   94       -7.812761e-01
   95       -2.369665e-01
   96       -7.434516e-01
   97       -2.233953e+00
   98        1.221838e+00
   99       -7.209718e-01
  100       -2.060398e-01
;
param X:=
    1        1.862292e+00
    2       -1.248209e+00
    3        8.463235e-01
    4        1.391762e+00
    5        6.859762e-01
    6        1.606287e+00
    7       -2.971535e-01
    8        1.821529e-01
    9        6.642852e-01
   10       -7.929370e-02
   11       -1.081147e-02
   12       -1.610001e+00
   13        1.147341e-01
   14        1.599826e-01
   15        6.492465e-01
   16       -4.279355e-01
   17       -2.777913e-01
   18        9.639692e-01
   19       -1.729059e+00
   20        5.881596e-01
   21        3.434630e-01
   22        4.086971e-01
   23        1.633785e+00
   24       -2.409909e-01
   25        7.159438e-01
   26        8.908182e-01
   27        6.522585e-02
   28        2.211537e-01
   29       -1.095392e+00
   30        4.215351e-01
   31       -5.823586e-01
   32        1.317562e+00
   33        5.991246e-01
   34        5.271417e-01
   35       -6.296145e-01
   36       -1.379679e+00
   37        5.983782e-01
   38       -5.173093e-01
   39       -1.735477e+00
   40       -3.664866e-01
   41       -1.076190e+00
   42        2.262794e-01
   43       -5.912827e-01
   44       -1.944217e+00
   45        2.821163e+00
   46       -3.162706e-01
   47        1.135666e+00
   48       -9.243137e-01
   49       -9.417268e-02
   50        2.438453e-01
   51       -8.210702e-01
   52        3.246272e-01
   53       -5.253285e-01
   54        5.374861e-01
   55        3.486936e-01
   56       -2.257679e+00
   57       -8.537729e-01
   58        7.575396e-01
   59       -1.860132e-01
   60       -4.311840e-01
   61       -6.029820e-01
   62        2.806844e-01
   63        2.198798e-02
   64        6.958018e-01
   65       -1.691119e-01
   66        1.863790e-01
   67        1.148979e+00
   68        1.436711e-01
   69        5.008317e-01
   70       -1.665698e+00
   71        8.135197e-01
   72       -8.361068e-01
   73        4.157810e-01
   74       -8.556517e-02
   75       -2.949753e-01
   76        1.651875e+00
   77        4.639357e-01
   78       -1.680736e-01
   79        2.043373e-01
   80       -2.606785e-01
   81        1.042263e+00
   82        8.523830e-01
   83       -5.266920e-01
   84       -1.403187e+00
   85       -1.138759e+00
   86       -1.337549e+00
   87        1.371512e+00
   88        9.950395e-01
   89       -1.918236e-01
   90       -2.348069e+00
   91       -5.913619e-01
   92       -2.105150e+00
   93       -1.650117e+00
   94        1.626237e+00
   95       -6.910606e-01
   96       -3.128785e-01
   97       -2.610102e-01
   98       -2.256092e+00
   99       -8.748350e-02
  100       -5.940815e-01
;
param outliervec:=
    1    1
    2    1
    3    1
    4    1
    5    1
    6    1
    7    1
    8    1
    9    1
   10    1
   11    1
   12    0
   13    1
   14    1
   15    1
   16    0
   17    1
   18    1
   19    1
   20    0
   21    1
   22    1
   23    1
   24    0
   25    1
   26    1
   27    1
   28    1
   29    1
   30    1
   31    1
   32    1
   33    0
   34    1
   35    1
   36    1
   37    1
   38    1
   39    1
   40    0
   41    0
   42    0
   43    0
   44    1
   45    1
   46    1
   47    1
   48    1
   49    1
   50    1
   51    1
   52    1
   53    1
   54    1
   55    1
   56    1
   57    1
   58    1
   59    1
   60    1
   61    1
   62    1
   63    1
   64    1
   65    1
   66    1
   67    1
   68    1
   69    1
   70    0
   71    1
   72    1
   73    1
   74    1
   75    0
   76    0
   77    1
   78    1
   79    0
   80    1
   81    1
   82    1
   83    1
   84    0
   85    1
   86    0
   87    1
   88    1
   89    1
   90    1
   91    1
   92    1
   93    1
   94    1
   95    1
   96    1
   97    1
   98    1
   99    1
  100    1
;